proyfinal/src/viki/013/experimentInOfficeAgust.take6.output/ef2a5efa-9ee0-4a58-83f1-d0bda456f466.als.dat
{'cnf.clauses': '118081',
 'cnf.totvars': '69608',
 'conflict literals': '166',
 'conflicts': '50',
 'decisions': '7253',
 'memused.mb': '16.18',
 'outcome': 'UNSAT',
 'propagations': '71423',
 'restarts': '1',
 'solver.msecs': 34,
 'task.msecs': 109}
