proyfinal/src/viki/013/experimentInOfficeAgust.take6.output/ef2a5efa-9ee0-4a58-83f1-d0bda456f466.als.out
Reading from standard input... Use '--help' for help.
============================[ Problem Statistics ]=============================
|                                                                             |
|  Number of variables:         69608                                         |
|  Number of clauses:          118081                                         |
|  Parse time:                   0.02 s                                       |
|                                                                             |
============================[ Search Statistics ]==============================
| Conflicts |          ORIGINAL         |          LEARNT          | Progress |
|           |    Vars  Clauses Literals |    Limit  Clauses Lit/Cl |          |
===============================================================================
===============================================================================
restarts              : 1
conflicts             : 50             (1439 /sec)
decisions             : 7253           (0.00 % random) (208810 /sec)
propagations          : 71423          (2056226 /sec)
conflict literals     : 166            (7.26 % deleted)
Memory used           : 16.18 MB
CPU time              : 0.034735 s

UNSATISFIABLE
